90 4005
1 2 207
1 3 260
1 4 48
1 5 120
1 6 188
1 7 98
1 8 241
1 9 202
1 10 110
1 11 253
1 12 233
1 13 253
1 14 246
1 15 122
1 16 238
1 17 84
1 18 148
1 19 204
1 20 184
1 21 169
1 22 133
1 23 229
1 24 50
1 25 236
1 26 48
1 27 261
1 28 80
1 29 248
1 30 268
1 31 240
1 32 28
1 33 137
1 34 133
1 35 235
1 36 118
1 37 230
1 38 250
1 39 218
1 40 122
1 41 160
1 42 112
1 43 63
1 44 207
1 45 181
1 46 121
1 47 71
1 48 33
1 49 8
1 50 58
1 51 103
1 52 126
1 53 107
1 54 64
1 55 153
1 56 220
1 57 206
1 58 5
1 59 171
1 60 18
1 61 245
1 62 254
1 63 132
1 64 162
1 65 50
1 66 144
1 67 227
1 68 1
1 69 1
1 70 27
1 71 161
1 72 246
1 73 32
1 74 194
1 75 221
1 76 67
1 77 1
1 78 65
1 79 207
1 80 161
1 81 49
1 82 33
1 83 267
1 84 267
1 85 205
1 86 246
1 87 245
1 88 183
1 89 229
1 90 125
2 3 81
2 4 107
2 5 3
2 6 94
2 7 38
2 8 193
2 9 257
2 10 220
2 11 80
2 12 189
2 13 237
2 14 120
2 15 10
2 16 68
2 17 28
2 18 144
2 19 34
2 20 41
2 21 0
2 22 184
2 23 158
2 24 1
2 25 193
2 26 36
2 27 118
2 28 250
2 29 181
2 30 259
2 31 263
2 32 160
2 33 181
2 34 94
2 35 10
2 36 151
2 37 236
2 38 226
2 39 210
2 40 90
2 41 217
2 42 114
2 43 230
2 44 131
2 45 154
2 46 268
2 47 202
2 48 238
2 49 100
2 50 259
2 51 133
2 52 167
2 53 139
2 54 0
2 55 250
2 56 197
2 57 100
2 58 193
2 59 218
2 60 208
2 61 269
2 62 79
2 63 2
2 64 120
2 65 75
2 66 83
2 67 80
2 68 78
2 69 7
2 70 111
2 71 225
2 72 138
2 73 103
2 74 31
2 75 150
2 76 192
2 77 17
2 78 257
2 79 197
2 80 214
2 81 21
2 82 74
2 83 15
2 84 211
2 85 117
2 86 73
2 87 62
2 88 54
2 89 56
2 90 174
3 4 101
3 5 203
3 6 85
3 7 158
3 8 54
3 9 111
3 10 118
3 11 248
3 12 226
3 13 75
3 14 129
3 15 184
3 16 226
3 17 148
3 18 220
3 19 3
3 20 192
3 21 241
3 22 165
3 23 124
3 24 124
3 25 54
3 26 121
3 27 73
3 28 145
3 29 198
3 30 257
3 31 231
3 32 253
3 33 30
3 34 97
3 35 53
3 36 18
3 37 60
3 38 185
3 39 95
3 40 21
3 41 236
3 42 239
3 43 151
3 44 247
3 45 34
3 46 19
3 47 76
3 48 197
3 49 133
3 50 161
3 51 32
3 52 182
3 53 122
3 54 163
3 55 163
3 56 229
3 57 24
3 58 63
3 59 56
3 60 262
3 61 240
3 62 105
3 63 81
3 64 218
3 65 253
3 66 251
3 67 150
3 68 253
3 69 135
3 70 31
3 71 94
3 72 176
3 73 111
3 74 228
3 75 221
3 76 80
3 77 231
3 78 140
3 79 195
3 80 48
3 81 157
3 82 235
3 83 201
3 84 138
3 85 257
3 86 252
3 87 92
3 88 217
3 89 245
3 90 106
4 5 190
4 6 122
4 7 177
4 8 188
4 9 86
4 10 72
4 11 36
4 12 74
4 13 249
4 14 31
4 15 26
4 16 11
4 17 59
4 18 262
4 19 191
4 20 99
4 21 151
4 22 47
4 23 167
4 24 143
4 25 138
4 26 84
4 27 200
4 28 221
4 29 5
4 30 183
4 31 210
4 32 136
4 33 7
4 34 245
4 35 154
4 36 236
4 37 44
4 38 32
4 39 192
4 40 212
4 41 2
4 42 206
4 43 207
4 44 47
4 45 256
4 46 87
4 47 24
4 48 107
4 49 85
4 50 179
4 51 64
4 52 134
4 53 175
4 54 190
4 55 141
4 56 122
4 57 154
4 58 101
4 59 206
4 60 265
4 61 84
4 62 47
4 63 258
4 64 15
4 65 51
4 66 171
4 67 81
4 68 41
4 69 45
4 70 74
4 71 15
4 72 127
4 73 2
4 74 164
4 75 115
4 76 40
4 77 251
4 78 259
4 79 152
4 80 143
4 81 219
4 82 48
4 83 21
4 84 108
4 85 58
4 86 50
4 87 137
4 88 261
4 89 238
4 90 221
5 6 204
5 7 266
5 8 98
5 9 262
5 10 245
5 11 99
5 12 158
5 13 141
5 14 48
5 15 229
5 16 107
5 17 248
5 18 114
5 19 59
5 20 221
5 21 229
5 22 88
5 23 31
5 24 29
5 25 69
5 26 261
5 27 177
5 28 98
5 29 127
5 30 34
5 31 264
5 32 100
5 33 225
5 34 210
5 35 117
5 36 175
5 37 105
5 38 53
5 39 91
5 40 8
5 41 244
5 42 265
5 43 31
5 44 20
5 45 56
5 46 94
5 47 102
5 48 161
5 49 221
5 50 10
5 51 243
5 52 127
5 53 155
5 54 117
5 55 86
5 56 228
5 57 221
5 58 33
5 59 244
5 60 124
5 61 227
5 62 86
5 63 14
5 64 163
5 65 243
5 66 188
5 67 222
5 68 159
5 69 41
5 70 133
5 71 35
5 72 214
5 73 223
5 74 249
5 75 32
5 76 235
5 77 27
5 78 214
5 79 67
5 80 109
5 81 57
5 82 106
5 83 106
5 84 219
5 85 116
5 86 113
5 87 40
5 88 235
5 89 7
5 90 96
6 7 66
6 8 240
6 9 139
6 10 159
6 11 262
6 12 82
6 13 253
6 14 89
6 15 269
6 16 186
6 17 63
6 18 133
6 19 150
6 20 206
6 21 43
6 22 252
6 23 240
6 24 205
6 25 191
6 26 154
6 27 168
6 28 248
6 29 181
6 30 80
6 31 226
6 32 208
6 33 132
6 34 83
6 35 55
6 36 168
6 37 245
6 38 163
6 39 39
6 40 269
6 41 158
6 42 237
6 43 18
6 44 37
6 45 262
6 46 258
6 47 115
6 48 83
6 49 46
6 50 162
6 51 220
6 52 118
6 53 143
6 54 175
6 55 144
6 56 241
6 57 91
6 58 12
6 59 13
6 60 2
6 61 8
6 62 214
6 63 225
6 64 178
6 65 96
6 66 235
6 67 118
6 68 170
6 69 68
6 70 12
6 71 200
6 72 142
6 73 173
6 74 112
6 75 52
6 76 160
6 77 82
6 78 32
6 79 170
6 80 10
6 81 88
6 82 59
6 83 185
6 84 83
6 85 57
6 86 151
6 87 101
6 88 100
6 89 204
6 90 178
7 8 206
7 9 203
7 10 154
7 11 138
7 12 60
7 13 264
7 14 28
7 15 232
7 16 116
7 17 69
7 18 243
7 19 109
7 20 156
7 21 11
7 22 232
7 23 258
7 24 2
7 25 200
7 26 247
7 27 100
7 28 138
7 29 204
7 30 74
7 31 157
7 32 9
7 33 97
7 34 101
7 35 239
7 36 166
7 37 61
7 38 178
7 39 4
7 40 175
7 41 194
7 42 113
7 43 236
7 44 155
7 45 4
7 46 138
7 47 120
7 48 107
7 49 228
7 50 233
7 51 237
7 52 259
7 53 59
7 54 104
7 55 141
7 56 251
7 57 184
7 58 186
7 59 88
7 60 171
7 61 91
7 62 115
7 63 2
7 64 105
7 65 227
7 66 118
7 67 217
7 68 225
7 69 91
7 70 152
7 71 55
7 72 120
7 73 76
7 74 62
7 75 141
7 76 57
7 77 41
7 78 219
7 79 190
7 80 13
7 81 134
7 82 108
7 83 195
7 84 255
7 85 7
7 86 114
7 87 127
7 88 20
7 89 260
7 90 127
8 9 208
8 10 189
8 11 19
8 12 265
8 13 52
8 14 80
8 15 77
8 16 6
8 17 225
8 18 59
8 19 139
8 20 116
8 21 220
8 22 148
8 23 217
8 24 86
8 25 223
8 26 205
8 27 135
8 28 40
8 29 5
8 30 207
8 31 31
8 32 48
8 33 261
8 34 94
8 35 185
8 36 26
8 37 264
8 38 47
8 39 61
8 40 121
8 41 206
8 42 211
8 43 201
8 44 163
8 45 52
8 46 91
8 47 195
8 48 232
8 49 83
8 50 253
8 51 186
8 52 102
8 53 217
8 54 135
8 55 93
8 56 257
8 57 51
8 58 47
8 59 192
8 60 254
8 61 91
8 62 11
8 63 100
8 64 138
8 65 168
8 66 163
8 67 159
8 68 249
8 69 12
8 70 187
8 71 268
8 72 114
8 73 97
8 74 164
8 75 83
8 76 219
8 77 139
8 78 168
8 79 165
8 80 24
8 81 10
8 82 156
8 83 49
8 84 51
8 85 179
8 86 79
8 87 178
8 88 253
8 89 163
8 90 7
9 10 140
9 11 17
9 12 216
9 13 263
9 14 117
9 15 211
9 16 66
9 17 219
9 18 22
9 19 82
9 20 264
9 21 122
9 22 43
9 23 255
9 24 37
9 25 166
9 26 248
9 27 161
9 28 135
9 29 61
9 30 235
9 31 77
9 32 183
9 33 108
9 34 201
9 35 144
9 36 119
9 37 163
9 38 30
9 39 11
9 40 233
9 41 255
9 42 145
9 43 70
9 44 175
9 45 141
9 46 128
9 47 128
9 48 78
9 49 86
9 50 263
9 51 223
9 52 68
9 53 162
9 54 158
9 55 116
9 56 170
9 57 125
9 58 221
9 59 148
9 60 147
9 61 190
9 62 257
9 63 176
9 64 161
9 65 87
9 66 204
9 67 210
9 68 162
9 69 100
9 70 194
9 71 204
9 72 39
9 73 63
9 74 123
9 75 207
9 76 97
9 77 226
9 78 78
9 79 226
9 80 240
9 81 237
9 82 68
9 83 153
9 84 133
9 85 55
9 86 13
9 87 241
9 88 222
9 89 113
9 90 83
10 11 72
10 12 13
10 13 263
10 14 179
10 15 17
10 16 243
10 17 106
10 18 150
10 19 69
10 20 197
10 21 67
10 22 264
10 23 193
10 24 241
10 25 131
10 26 88
10 27 54
10 28 260
10 29 66
10 30 183
10 31 63
10 32 19
10 33 267
10 34 180
10 35 22
10 36 102
10 37 159
10 38 74
10 39 85
10 40 190
10 41 145
10 42 1
10 43 12
10 44 155
10 45 5
10 46 109
10 47 144
10 48 247
10 49 115
10 50 196
10 51 204
10 52 126
10 53 2
10 54 161
10 55 253
10 56 213
10 57 105
10 58 199
10 59 31
10 60 68
10 61 80
10 62 150
10 63 57
10 64 96
10 65 123
10 66 50
10 67 209
10 68 126
10 69 234
10 70 214
10 71 14
10 72 74
10 73 17
10 74 231
10 75 148
10 76 259
10 77 111
10 78 14
10 79 221
10 80 142
10 81 153
10 82 58
10 83 215
10 84 121
10 85 229
10 86 7
10 87 202
10 88 14
10 89 117
10 90 239
11 12 185
11 13 187
11 14 77
11 15 195
11 16 215
11 17 167
11 18 212
11 19 150
11 20 227
11 21 157
11 22 168
11 23 6
11 24 76
11 25 96
11 26 51
11 27 70
11 28 91
11 29 266
11 30 57
11 31 166
11 32 121
11 33 177
11 34 255
11 35 9
11 36 142
11 37 244
11 38 120
11 39 179
11 40 56
11 41 222
11 42 239
11 43 239
11 44 215
11 45 3
11 46 79
11 47 0
11 48 16
11 49 98
11 50 178
11 51 7
11 52 138
11 53 263
11 54 208
11 55 263
11 56 259
11 57 42
11 58 259
11 59 5
11 60 210
11 61 100
11 62 84
11 63 90
11 64 188
11 65 107
11 66 92
11 67 238
11 68 177
11 69 257
11 70 184
11 71 32
11 72 248
11 73 108
11 74 82
11 75 213
11 76 120
11 77 218
11 78 56
11 79 208
11 80 75
11 81 249
11 82 52
11 83 36
11 84 262
11 85 221
11 86 126
11 87 264
11 88 168
11 89 86
11 90 169
12 13 114
12 14 212
12 15 182
12 16 161
12 17 16
12 18 149
12 19 120
12 20 149
12 21 61
12 22 225
12 23 210
12 24 164
12 25 7
12 26 195
12 27 122
12 28 101
12 29 130
12 30 105
12 31 227
12 32 55
12 33 162
12 34 268
12 35 238
12 36 149
12 37 180
12 38 128
12 39 101
12 40 229
12 41 4
12 42 223
12 43 124
12 44 70
12 45 144
12 46 248
12 47 239
12 48 10
12 49 193
12 50 167
12 51 79
12 52 206
12 53 27
12 54 20
12 55 113
12 56 42
12 57 71
12 58 154
12 59 209
12 60 152
12 61 5
12 62 27
12 63 82
12 64 34
12 65 197
12 66 39
12 67 62
12 68 220
12 69 195
12 70 130
12 71 192
12 72 31
12 73 242
12 74 8
12 75 225
12 76 263
12 77 231
12 78 269
12 79 204
12 80 38
12 81 135
12 82 83
12 83 149
12 84 117
12 85 149
12 86 135
12 87 95
12 88 262
12 89 151
12 90 177
13 14 245
13 15 115
13 16 153
13 17 197
13 18 47
13 19 95
13 20 64
13 21 230
13 22 145
13 23 174
13 24 117
13 25 27
13 26 176
13 27 91
13 28 129
13 29 144
13 30 261
13 31 256
13 32 255
13 33 27
13 34 73
13 35 3
13 36 202
13 37 198
13 38 45
13 39 159
13 40 82
13 41 173
13 42 58
13 43 100
13 44 198
13 45 230
13 46 70
13 47 22
13 48 151
13 49 198
13 50 90
13 51 2
13 52 87
13 53 209
13 54 114
13 55 75
13 56 72
13 57 208
13 58 177
13 59 160
13 60 261
13 61 26
13 62 184
13 63 63
13 64 74
13 65 219
13 66 64
13 67 64
13 68 153
13 69 161
13 70 78
13 71 171
13 72 218
13 73 18
13 74 215
13 75 193
13 76 200
13 77 17
13 78 134
13 79 98
13 80 151
13 81 134
13 82 212
13 83 61
13 84 193
13 85 179
13 86 183
13 87 173
13 88 56
13 89 216
13 90 160
14 15 150
14 16 43
14 17 241
14 18 248
14 19 216
14 20 161
14 21 113
14 22 253
14 23 150
14 24 149
14 25 81
14 26 130
14 27 17
14 28 79
14 29 268
14 30 260
14 31 48
14 32 119
14 33 211
14 34 248
14 35 229
14 36 223
14 37 232
14 38 50
14 39 133
14 40 99
14 41 184
14 42 227
14 43 199
14 44 37
14 45 267
14 46 78
14 47 108
14 48 14
14 49 101
14 50 80
14 51 264
14 52 7
14 53 118
14 54 267
14 55 117
14 56 210
14 57 18
14 58 264
14 59 16
14 60 110
14 61 55
14 62 133
14 63 62
14 64 106
14 65 43
14 66 143
14 67 92
14 68 98
14 69 89
14 70 217
14 71 256
14 72 160
14 73 113
14 74 108
14 75 216
14 76 18
14 77 21
14 78 37
14 79 93
14 80 123
14 81 200
14 82 206
14 83 166
14 84 267
14 85 226
14 86 91
14 87 163
14 88 22
14 89 208
14 90 131
15 16 6
15 17 96
15 18 90
15 19 243
15 20 134
15 21 106
15 22 34
15 23 202
15 24 227
15 25 8
15 26 145
15 27 139
15 28 213
15 29 264
15 30 97
15 31 144
15 32 98
15 33 248
15 34 86
15 35 264
15 36 165
15 37 130
15 38 191
15 39 126
15 40 164
15 41 21
15 42 79
15 43 227
15 44 138
15 45 256
15 46 9
15 47 208
15 48 162
15 49 130
15 50 159
15 51 163
15 52 259
15 53 216
15 54 81
15 55 76
15 56 169
15 57 39
15 58 101
15 59 161
15 60 40
15 61 123
15 62 150
15 63 15
15 64 29
15 65 96
15 66 28
15 67 146
15 68 159
15 69 251
15 70 119
15 71 256
15 72 135
15 73 121
15 74 168
15 75 180
15 76 194
15 77 205
15 78 92
15 79 38
15 80 0
15 81 250
15 82 105
15 83 209
15 84 33
15 85 130
15 86 73
15 87 264
15 88 241
15 89 159
15 90 33
16 17 104
16 18 13
16 19 187
16 20 87
16 21 17
16 22 3
16 23 263
16 24 131
16 25 203
16 26 43
16 27 72
16 28 195
16 29 137
16 30 5
16 31 255
16 32 240
16 33 265
16 34 5
16 35 179
16 36 51
16 37 101
16 38 62
16 39 71
16 40 239
16 41 206
16 42 10
16 43 93
16 44 148
16 45 48
16 46 166
16 47 255
16 48 141
16 49 105
16 50 193
16 51 205
16 52 126
16 53 212
16 54 96
16 55 31
16 56 143
16 57 190
16 58 207
16 59 78
16 60 59
16 61 40
16 62 98
16 63 8
16 64 170
16 65 82
16 66 145
16 67 241
16 68 23
16 69 257
16 70 175
16 71 210
16 72 39
16 73 58
16 74 168
16 75 240
16 76 104
16 77 253
16 78 140
16 79 259
16 80 8
16 81 233
16 82 92
16 83 227
16 84 78
16 85 47
16 86 228
16 87 82
16 88 183
16 89 18
16 90 223
17 18 233
17 19 117
17 20 53
17 21 213
17 22 81
17 23 114
17 24 177
17 25 193
17 26 167
17 27 18
17 28 179
17 29 71
17 30 56
17 31 9
17 32 4
17 33 71
17 34 185
17 35 240
17 36 30
17 37 119
17 38 245
17 39 193
17 40 57
17 41 182
17 42 1
17 43 245
17 44 264
17 45 70
17 46 29
17 47 71
17 48 18
17 49 49
17 50 15
17 51 114
17 52 17
17 53 264
17 54 31
17 55 4
17 56 234
17 57 225
17 58 73
17 59 135
17 60 159
17 61 113
17 62 251
17 63 129
17 64 174
17 65 153
17 66 139
17 67 59
17 68 180
17 69 154
17 70 96
17 71 136
17 72 252
17 73 127
17 74 134
17 75 184
17 76 214
17 77 3
17 78 186
17 79 55
17 80 130
17 81 111
17 82 127
17 83 157
17 84 256
17 85 161
17 86 83
17 87 166
17 88 188
17 89 55
17 90 246
18 19 75
18 20 202
18 21 140
18 22 251
18 23 131
18 24 52
18 25 178
18 26 127
18 27 77
18 28 143
18 29 215
18 30 239
18 31 253
18 32 20
18 33 6
18 34 55
18 35 94
18 36 154
18 37 136
18 38 14
18 39 115
18 40 22
18 41 106
18 42 229
18 43 181
18 44 16
18 45 266
18 46 210
18 47 155
18 48 196
18 49 233
18 50 174
18 51 233
18 52 100
18 53 59
18 54 159
18 55 244
18 56 74
18 57 108
18 58 139
18 59 24
18 60 80
18 61 211
18 62 129
18 63 4
18 64 257
18 65 235
18 66 229
18 67 237
18 68 267
18 69 222
18 70 192
18 71 157
18 72 37
18 73 215
18 74 40
18 75 123
18 76 17
18 77 171
18 78 202
18 79 89
18 80 188
18 81 169
18 82 55
18 83 212
18 84 202
18 85 251
18 86 221
18 87 32
18 88 131
18 89 14
18 90 251
19 20 269
19 21 33
19 22 232
19 23 251
19 24 264
19 25 94
19 26 211
19 27 136
19 28 69
19 29 246
19 30 238
19 31 198
19 32 147
19 33 30
19 34 179
19 35 160
19 36 178
19 37 129
19 38 156
19 39 25
19 40 223
19 41 81
19 42 249
19 43 248
19 44 108
19 45 245
19 46 151
19 47 139
19 48 53
19 49 198
19 50 203
19 51 171
19 52 190
19 53 13
19 54 98
19 55 243
19 56 259
19 57 58
19 58 50
19 59 64
19 60 262
19 61 166
19 62 56
19 63 178
19 64 238
19 65 250
19 66 122
19 67 202
19 68 10
19 69 108
19 70 268
19 71 190
19 72 233
19 73 22
19 74 195
19 75 60
19 76 143
19 77 14
19 78 122
19 79 77
19 80 197
19 81 112
19 82 242
19 83 213
19 84 202
19 85 87
19 86 54
19 87 104
19 88 184
19 89 6
19 90 208
20 21 256
20 22 130
20 23 60
20 24 35
20 25 239
20 26 57
20 27 10
20 28 112
20 29 268
20 30 104
20 31 100
20 32 53
20 33 61
20 34 249
20 35 226
20 36 151
20 37 53
20 38 90
20 39 55
20 40 262
20 41 132
20 42 55
20 43 94
20 44 122
20 45 140
20 46 208
20 47 221
20 48 165
20 49 261
20 50 258
20 51 104
20 52 93
20 53 169
20 54 179
20 55 69
20 56 150
20 57 261
20 58 241
20 59 121
20 60 259
20 61 33
20 62 37
20 63 77
20 64 64
20 65 156
20 66 200
20 67 83
20 68 34
20 69 252
20 70 150
20 71 93
20 72 208
20 73 17
20 74 85
20 75 181
20 76 251
20 77 83
20 78 231
20 79 77
20 80 73
20 81 141
20 82 269
20 83 27
20 84 94
20 85 23
20 86 41
20 87 159
20 88 183
20 89 146
20 90 90
21 22 168
21 23 246
21 24 215
21 25 82
21 26 220
21 27 89
21 28 17
21 29 234
21 30 148
21 31 49
21 32 89
21 33 9
21 34 223
21 35 250
21 36 83
21 37 7
21 38 40
21 39 259
21 40 111
21 41 130
21 42 56
21 43 234
21 44 164
21 45 246
21 46 229
21 47 104
21 48 218
21 49 14
21 50 171
21 51 221
21 52 191
21 53 106
21 54 26
21 55 234
21 56 93
21 57 66
21 58 64
21 59 104
21 60 268
21 61 188
21 62 70
21 63 74
21 64 180
21 65 56
21 66 67
21 67 226
21 68 233
21 69 203
21 70 256
21 71 139
21 72 141
21 73 147
21 74 26
21 75 132
21 76 110
21 77 237
21 78 243
21 79 149
21 80 266
21 81 61
21 82 180
21 83 259
21 84 91
21 85 166
21 86 217
21 87 216
21 88 259
21 89 70
21 90 59
22 23 166
22 24 263
22 25 178
22 26 129
22 27 101
22 28 14
22 29 109
22 30 267
22 31 165
22 32 264
22 33 190
22 34 71
22 35 122
22 36 75
22 37 49
22 38 171
22 39 183
22 40 136
22 41 228
22 42 82
22 43 173
22 44 237
22 45 138
22 46 108
22 47 61
22 48 182
22 49 73
22 50 256
22 51 48
22 52 26
22 53 100
22 54 178
22 55 79
22 56 24
22 57 197
22 58 70
22 59 182
22 60 230
22 61 255
22 62 181
22 63 1
22 64 77
22 65 191
22 66 31
22 67 183
22 68 5
22 69 129
22 70 155
22 71 138
22 72 227
22 73 103
22 74 250
22 75 26
22 76 177
22 77 202
22 78 147
22 79 31
22 80 114
22 81 60
22 82 119
22 83 148
22 84 186
22 85 213
22 86 162
22 87 121
22 88 8
22 89 26
22 90 154
23 24 62
23 25 143
23 26 70
23 27 176
23 28 257
23 29 203
23 30 110
23 31 84
23 32 265
23 33 79
23 34 186
23 35 195
23 36 153
23 37 115
23 38 206
23 39 11
23 40 168
23 41 79
23 42 60
23 43 214
23 44 93
23 45 30
23 46 256
23 47 22
23 48 14
23 49 178
23 50 226
23 51 14
23 52 102
23 53 42
23 54 225
23 55 140
23 56 144
23 57 146
23 58 86
23 59 267
23 60 234
23 61 136
23 62 89
23 63 264
23 64 243
23 65 108
23 66 217
23 67 55
23 68 194
23 69 140
23 70 104
23 71 210
23 72 175
23 73 34
23 74 45
23 75 27
23 76 20
23 77 92
23 78 185
23 79 103
23 80 105
23 81 263
23 82 84
23 83 118
23 84 191
23 85 165
23 86 199
23 87 233
23 88 2
23 89 71
23 90 140
24 25 47
24 26 225
24 27 100
24 28 151
24 29 140
24 30 169
24 31 164
24 32 14
24 33 245
24 34 118
24 35 125
24 36 202
24 37 210
24 38 4
24 39 6
24 40 195
24 41 49
24 42 11
24 43 168
24 44 137
24 45 55
24 46 170
24 47 196
24 48 226
24 49 212
24 50 176
24 51 35
24 52 105
24 53 183
24 54 252
24 55 18
24 56 252
24 57 188
24 58 22
24 59 53
24 60 50
24 61 100
24 62 109
24 63 253
24 64 87
24 65 177
24 66 29
24 67 1
24 68 46
24 69 125
24 70 67
24 71 37
24 72 224
24 73 123
24 74 196
24 75 245
24 76 85
24 77 246
24 78 262
24 79 67
24 80 27
24 81 268
24 82 207
24 83 135
24 84 195
24 85 24
24 86 89
24 87 48
24 88 181
24 89 61
24 90 236
25 26 14
25 27 259
25 28 20
25 29 16
25 30 246
25 31 262
25 32 155
25 33 2
25 34 165
25 35 40
25 36 154
25 37 201
25 38 262
25 39 242
25 40 59
25 41 139
25 42 87
25 43 152
25 44 48
25 45 96
25 46 3
25 47 198
25 48 232
25 49 71
25 50 13
25 51 213
25 52 251
25 53 58
25 54 246
25 55 185
25 56 53
25 57 217
25 58 7
25 59 163
25 60 70
25 61 12
25 62 221
25 63 163
25 64 73
25 65 173
25 66 183
25 67 6
25 68 207
25 69 43
25 70 82
25 71 150
25 72 7
25 73 105
25 74 131
25 75 2
25 76 84
25 77 77
25 78 170
25 79 204
25 80 82
25 81 53
25 82 114
25 83 177
25 84 267
25 85 131
25 86 190
25 87 9
25 88 113
25 89 218
25 90 20
26 27 214
26 28 50
26 29 226
26 30 163
26 31 57
26 32 81
26 33 9
26 34 174
26 35 112
26 36 172
26 37 38
26 38 101
26 39 90
26 40 210
26 41 134
26 42 193
26 43 96
26 44 34
26 45 164
26 46 51
26 47 225
26 48 94
26 49 152
26 50 261
26 51 129
26 52 54
26 53 62
26 54 114
26 55 240
26 56 10
26 57 27
26 58 188
26 59 93
26 60 40
26 61 93
26 62 225
26 63 197
26 64 142
26 65 166
26 66 214
26 67 30
26 68 1
26 69 44
26 70 61
26 71 207
26 72 156
26 73 68
26 74 180
26 75 85
26 76 40
26 77 171
26 78 265
26 79 17
26 80 184
26 81 81
26 82 207
26 83 247
26 84 94
26 85 36
26 86 101
26 87 233
26 88 255
26 89 150
26 90 255
27 28 254
27 29 5
27 30 23
27 31 217
27 32 27
27 33 252
27 34 135
27 35 35
27 36 157
27 37 196
27 38 137
27 39 55
27 40 68
27 41 115
27 42 50
27 43 22
27 44 115
27 45 216
27 46 185
27 47 137
27 48 128
27 49 3
27 50 148
27 51 239
27 52 252
27 53 65
27 54 238
27 55 146
27 56 161
27 57 57
27 58 266
27 59 179
27 60 158
27 61 121
27 62 79
27 63 243
27 64 55
27 65 213
27 66 246
27 67 248
27 68 148
27 69 260
27 70 26
27 71 170
27 72 191
27 73 197
27 74 175
27 75 47
27 76 135
27 77 233
27 78 53
27 79 197
27 80 55
27 81 33
27 82 32
27 83 221
27 84 62
27 85 49
27 86 64
27 87 90
27 88 188
27 89 158
27 90 145
28 29 194
28 30 135
28 31 113
28 32 240
28 33 1
28 34 152
28 35 104
28 36 40
28 37 105
28 38 206
28 39 115
28 40 228
28 41 235
28 42 266
28 43 161
28 44 9
28 45 248
28 46 70
28 47 213
28 48 259
28 49 179
28 50 265
28 51 62
28 52 230
28 53 27
28 54 249
28 55 61
28 56 51
28 57 151
28 58 91
28 59 28
28 60 175
28 61 30
28 62 116
28 63 223
28 64 187
28 65 76
28 66 216
28 67 207
28 68 249
28 69 172
28 70 21
28 71 105
28 72 149
28 73 100
28 74 12
28 75 195
28 76 211
28 77 154
28 78 228
28 79 112
28 80 114
28 81 234
28 82 194
28 83 70
28 84 72
28 85 54
28 86 11
28 87 44
28 88 130
28 89 193
28 90 230
29 30 97
29 31 227
29 32 90
29 33 92
29 34 125
29 35 143
29 36 206
29 37 118
29 38 125
29 39 6
29 40 15
29 41 61
29 42 67
29 43 27
29 44 54
29 45 230
29 46 161
29 47 47
29 48 205
29 49 198
29 50 191
29 51 228
29 52 77
29 53 175
29 54 54
29 55 95
29 56 231
29 57 44
29 58 20
29 59 28
29 60 102
29 61 86
29 62 26
29 63 120
29 64 165
29 65 233
29 66 178
29 67 108
29 68 222
29 69 115
29 70 47
29 71 112
29 72 35
29 73 86
29 74 231
29 75 80
29 76 146
29 77 178
29 78 128
29 79 231
29 80 223
29 81 132
29 82 146
29 83 127
29 84 79
29 85 162
29 86 84
29 87 108
29 88 38
29 89 222
29 90 5
30 31 94
30 32 176
30 33 201
30 34 83
30 35 188
30 36 192
30 37 266
30 38 70
30 39 249
30 40 224
30 41 138
30 42 67
30 43 217
30 44 215
30 45 16
30 46 202
30 47 214
30 48 158
30 49 73
30 50 147
30 51 212
30 52 14
30 53 11
30 54 226
30 55 130
30 56 138
30 57 166
30 58 64
30 59 116
30 60 19
30 61 57
30 62 133
30 63 91
30 64 6
30 65 81
30 66 35
30 67 220
30 68 125
30 69 164
30 70 184
30 71 148
30 72 176
30 73 262
30 74 146
30 75 123
30 76 214
30 77 94
30 78 121
30 79 246
30 80 180
30 81 6
30 82 82
30 83 147
30 84 157
30 85 200
30 86 223
30 87 236
30 88 49
30 89 51
30 90 74
31 32 51
31 33 162
31 34 29
31 35 187
31 36 160
31 37 239
31 38 180
31 39 177
31 40 182
31 41 11
31 42 206
31 43 150
31 44 23
31 45 145
31 46 163
31 47 171
31 48 239
31 49 96
31 50 104
31 51 243
31 52 72
31 53 39
31 54 207
31 55 233
31 56 208
31 57 249
31 58 184
31 59 6
31 60 107
31 61 100
31 62 132
31 63 250
31 64 106
31 65 12
31 66 93
31 67 125
31 68 237
31 69 132
31 70 1
31 71 260
31 72 93
31 73 171
31 74 111
31 75 40
31 76 109
31 77 45
31 78 119
31 79 214
31 80 129
31 81 140
31 82 155
31 83 261
31 84 142
31 85 99
31 86 78
31 87 231
31 88 31
31 89 132
31 90 258
32 33 88
32 34 160
32 35 141
32 36 125
32 37 146
32 38 74
32 39 202
32 40 244
32 41 15
32 42 164
32 43 29
32 44 198
32 45 155
32 46 64
32 47 90
32 48 195
32 49 109
32 50 146
32 51 31
32 52 82
32 53 116
32 54 75
32 55 269
32 56 173
32 57 17
32 58 99
32 59 118
32 60 192
32 61 216
32 62 34
32 63 195
32 64 31
32 65 108
32 66 75
32 67 85
32 68 185
32 69 24
32 70 65
32 71 220
32 72 175
32 73 159
32 74 73
32 75 109
32 76 51
32 77 157
32 78 141
32 79 126
32 80 107
32 81 120
32 82 161
32 83 211
32 84 159
32 85 140
32 86 17
32 87 213
32 88 27
32 89 133
32 90 72
33 34 38
33 35 6
33 36 120
33 37 117
33 38 12
33 39 103
33 40 113
33 41 7
33 42 159
33 43 123
33 44 51
33 45 75
33 46 199
33 47 77
33 48 104
33 49 133
33 50 196
33 51 214
33 52 243
33 53 25
33 54 108
33 55 54
33 56 124
33 57 0
33 58 66
33 59 133
33 60 105
33 61 145
33 62 7
33 63 193
33 64 212
33 65 136
33 66 28
33 67 247
33 68 237
33 69 161
33 70 155
33 71 134
33 72 7
33 73 104
33 74 84
33 75 77
33 76 164
33 77 2
33 78 269
33 79 206
33 80 165
33 81 92
33 82 59
33 83 110
33 84 201
33 85 1
33 86 89
33 87 164
33 88 247
33 89 123
33 90 148
34 35 153
34 36 189
34 37 224
34 38 3
34 39 224
34 40 110
34 41 163
34 42 264
34 43 235
34 44 117
34 45 247
34 46 264
34 47 212
34 48 190
34 49 23
34 50 38
34 51 182
34 52 100
34 53 193
34 54 200
34 55 22
34 56 160
34 57 33
34 58 182
34 59 170
34 60 63
34 61 47
34 62 48
34 63 69
34 64 202
34 65 33
34 66 17
34 67 240
34 68 88
34 69 169
34 70 53
34 71 154
34 72 126
34 73 28
34 74 87
34 75 239
34 76 236
34 77 136
34 78 165
34 79 193
34 80 151
34 81 267
34 82 228
34 83 178
34 84 166
34 85 14
34 86 156
34 87 14
34 88 25
34 89 269
34 90 226
35 36 266
35 37 235
35 38 206
35 39 266
35 40 137
35 41 104
35 42 114
35 43 54
35 44 78
35 45 265
35 46 234
35 47 228
35 48 232
35 49 183
35 50 56
35 51 261
35 52 40
35 53 221
35 54 145
35 55 93
35 56 225
35 57 246
35 58 204
35 59 250
35 60 118
35 61 162
35 62 144
35 63 104
35 64 64
35 65 20
35 66 113
35 67 257
35 68 151
35 69 19
35 70 123
35 71 228
35 72 223
35 73 146
35 74 124
35 75 3
35 76 85
35 77 114
35 78 172
35 79 16
35 80 209
35 81 26
35 82 126
35 83 87
35 84 14
35 85 217
35 86 68
35 87 226
35 88 177
35 89 172
35 90 85
36 37 72
36 38 251
36 39 212
36 40 241
36 41 80
36 42 114
36 43 16
36 44 237
36 45 212
36 46 236
36 47 195
36 48 65
36 49 132
36 50 58
36 51 235
36 52 109
36 53 257
36 54 39
36 55 179
36 56 197
36 57 160
36 58 214
36 59 86
36 60 239
36 61 139
36 62 143
36 63 145
36 64 29
36 65 263
36 66 154
36 67 156
36 68 71
36 69 124
36 70 21
36 71 97
36 72 124
36 73 116
36 74 153
36 75 24
36 76 174
36 77 14
36 78 210
36 79 267
36 80 162
36 81 12
36 82 264
36 83 117
36 84 108
36 85 54
36 86 164
36 87 120
36 88 175
36 89 190
36 90 253
37 38 89
37 39 152
37 40 188
37 41 169
37 42 42
37 43 251
37 44 251
37 45 217
37 46 202
37 47 84
37 48 181
37 49 177
37 50 220
37 51 45
37 52 81
37 53 53
37 54 6
37 55 208
37 56 251
37 57 84
37 58 195
37 59 122
37 60 82
37 61 76
37 62 174
37 63 215
37 64 18
37 65 16
37 66 229
37 67 116
37 68 247
37 69 24
37 70 13
37 71 259
37 72 217
37 73 214
37 74 108
37 75 176
37 76 17
37 77 100
37 78 91
37 79 57
37 80 260
37 81 62
37 82 109
37 83 217
37 84 162
37 85 269
37 86 67
37 87 157
37 88 116
37 89 203
37 90 264
38 39 79
38 40 167
38 41 237
38 42 117
38 43 75
38 44 184
38 45 173
38 46 168
38 47 246
38 48 190
38 49 40
38 50 76
38 51 23
38 52 79
38 53 86
38 54 218
38 55 12
38 56 221
38 57 204
38 58 151
38 59 163
38 60 113
38 61 183
38 62 207
38 63 159
38 64 25
38 65 28
38 66 11
38 67 131
38 68 117
38 69 150
38 70 35
38 71 168
38 72 119
38 73 197
38 74 256
38 75 17
38 76 0
38 77 135
38 78 191
38 79 206
38 80 42
38 81 161
38 82 135
38 83 176
38 84 260
38 85 236
38 86 221
38 87 252
38 88 258
38 89 121
38 90 156
39 40 144
39 41 40
39 42 2
39 43 110
39 44 237
39 45 151
39 46 264
39 47 171
39 48 250
39 49 238
39 50 247
39 51 55
39 52 125
39 53 240
39 54 202
39 55 16
39 56 54
39 57 126
39 58 149
39 59 138
39 60 77
39 61 216
39 62 216
39 63 126
39 64 143
39 65 248
39 66 247
39 67 210
39 68 211
39 69 266
39 70 177
39 71 141
39 72 219
39 73 99
39 74 68
39 75 58
39 76 198
39 77 212
39 78 117
39 79 110
39 80 200
39 81 251
39 82 110
39 83 266
39 84 10
39 85 46
39 86 201
39 87 75
39 88 228
39 89 55
39 90 97
40 41 179
40 42 225
40 43 39
40 44 120
40 45 4
40 46 67
40 47 3
40 48 74
40 49 173
40 50 80
40 51 22
40 52 9
40 53 198
40 54 182
40 55 114
40 56 65
40 57 18
40 58 204
40 59 89
40 60 68
40 61 186
40 62 108
40 63 91
40 64 158
40 65 256
40 66 128
40 67 178
40 68 43
40 69 132
40 70 249
40 71 2
40 72 74
40 73 19
40 74 269
40 75 89
40 76 65
40 77 265
40 78 29
40 79 124
40 80 177
40 81 97
40 82 99
40 83 228
40 84 32
40 85 20
40 86 252
40 87 208
40 88 140
40 89 128
40 90 194
41 42 118
41 43 51
41 44 9
41 45 19
41 46 205
41 47 168
41 48 6
41 49 176
41 50 105
41 51 77
41 52 249
41 53 81
41 54 146
41 55 259
41 56 92
41 57 132
41 58 9
41 59 165
41 60 127
41 61 159
41 62 215
41 63 148
41 64 225
41 65 110
41 66 197
41 67 41
41 68 15
41 69 67
41 70 63
41 71 145
41 72 238
41 73 159
41 74 13
41 75 153
41 76 36
41 77 253
41 78 200
41 79 202
41 80 31
41 81 227
41 82 256
41 83 33
41 84 143
41 85 160
41 86 253
41 87 151
41 88 61
41 89 22
41 90 148
42 43 207
42 44 89
42 45 88
42 46 86
42 47 199
42 48 107
42 49 95
42 50 27
42 51 243
42 52 91
42 53 153
42 54 163
42 55 120
42 56 26
42 57 252
42 58 128
42 59 232
42 60 67
42 61 233
42 62 14
42 63 253
42 64 263
42 65 62
42 66 11
42 67 121
42 68 249
42 69 52
42 70 182
42 71 150
42 72 201
42 73 87
42 74 44
42 75 152
42 76 114
42 77 149
42 78 157
42 79 269
42 80 251
42 81 136
42 82 87
42 83 235
42 84 260
42 85 60
42 86 229
42 87 98
42 88 93
42 89 164
42 90 224
43 44 68
43 45 169
43 46 40
43 47 74
43 48 131
43 49 141
43 50 165
43 51 69
43 52 248
43 53 204
43 54 146
43 55 98
43 56 254
43 57 196
43 58 223
43 59 211
43 60 138
43 61 13
43 62 167
43 63 149
43 64 35
43 65 59
43 66 144
43 67 118
43 68 127
43 69 157
43 70 250
43 71 260
43 72 22
43 73 46
43 74 202
43 75 7
43 76 223
43 77 234
43 78 219
43 79 31
43 80 63
43 81 6
43 82 231
43 83 131
43 84 106
43 85 247
43 86 262
43 87 6
43 88 82
43 89 208
43 90 240
44 45 251
44 46 134
44 47 179
44 48 226
44 49 32
44 50 136
44 51 66
44 52 43
44 53 193
44 54 266
44 55 214
44 56 6
44 57 93
44 58 235
44 59 102
44 60 202
44 61 128
44 62 184
44 63 90
44 64 117
44 65 236
44 66 163
44 67 240
44 68 32
44 69 208
44 70 242
44 71 141
44 72 226
44 73 246
44 74 5
44 75 115
44 76 125
44 77 153
44 78 182
44 79 20
44 80 172
44 81 250
44 82 136
44 83 230
44 84 128
44 85 111
44 86 232
44 87 249
44 88 176
44 89 83
44 90 101
45 46 152
45 47 146
45 48 244
45 49 237
45 50 44
45 51 218
45 52 71
45 53 263
45 54 88
45 55 157
45 56 48
45 57 211
45 58 131
45 59 144
45 60 80
45 61 223
45 62 212
45 63 224
45 64 228
45 65 265
45 66 244
45 67 148
45 68 89
45 69 127
45 70 207
45 71 141
45 72 39
45 73 123
45 74 24
45 75 263
45 76 237
45 77 102
45 78 45
45 79 76
45 80 40
45 81 233
45 82 22
45 83 123
45 84 202
45 85 15
45 86 111
45 87 71
45 88 264
45 89 89
45 90 58
46 47 205
46 48 165
46 49 59
46 50 176
46 51 77
46 52 111
46 53 35
46 54 98
46 55 32
46 56 111
46 57 79
46 58 10
46 59 88
46 60 176
46 61 184
46 62 134
46 63 72
46 64 44
46 65 202
46 66 268
46 67 57
46 68 96
46 69 122
46 70 27
46 71 9
46 72 200
46 73 42
46 74 1
46 75 224
46 76 208
46 77 3
46 78 148
46 79 20
46 80 209
46 81 51
46 82 53
46 83 35
46 84 202
46 85 78
46 86 117
46 87 180
46 88 17
46 89 73
46 90 34
47 48 157
47 49 166
47 50 232
47 51 87
47 52 91
47 53 189
47 54 163
47 55 71
47 56 168
47 57 184
47 58 26
47 59 263
47 60 94
47 61 174
47 62 13
47 63 59
47 64 157
47 65 252
47 66 58
47 67 48
47 68 60
47 69 34
47 70 265
47 71 242
47 72 33
47 73 238
47 74 220
47 75 246
47 76 77
47 77 107
47 78 19
47 79 0
47 80 269
47 81 90
47 82 135
47 83 188
47 84 137
47 85 56
47 86 93
47 87 117
47 88 211
47 89 200
47 90 135
48 49 231
48 50 232
48 51 205
48 52 203
48 53 16
48 54 85
48 55 39
48 56 89
48 57 164
48 58 32
48 59 44
48 60 153
48 61 143
48 62 149
48 63 15
48 64 100
48 65 156
48 66 91
48 67 115
48 68 238
48 69 160
48 70 215
48 71 78
48 72 91
48 73 58
48 74 22
48 75 148
48 76 168
48 77 241
48 78 116
48 79 144
48 80 134
48 81 156
48 82 248
48 83 70
48 84 204
48 85 157
48 86 129
48 87 150
48 88 121
48 89 7
48 90 94
49 50 8
49 51 26
49 52 265
49 53 64
49 54 204
49 55 236
49 56 209
49 57 145
49 58 155
49 59 213
49 60 144
49 61 5
49 62 244
49 63 45
49 64 49
49 65 7
49 66 261
49 67 100
49 68 220
49 69 261
49 70 145
49 71 108
49 72 164
49 73 166
49 74 14
49 75 140
49 76 156
49 77 256
49 78 230
49 79 101
49 80 235
49 81 165
49 82 235
49 83 136
49 84 124
49 85 208
49 86 49
49 87 232
49 88 133
49 89 164
49 90 154
50 51 36
50 52 65
50 53 246
50 54 129
50 55 27
50 56 136
50 57 178
50 58 236
50 59 27
50 60 84
50 61 245
50 62 209
50 63 66
50 64 202
50 65 221
50 66 236
50 67 23
50 68 218
50 69 10
50 70 184
50 71 88
50 72 102
50 73 249
50 74 151
50 75 49
50 76 167
50 77 2
50 78 95
50 79 218
50 80 10
50 81 264
50 82 145
50 83 23
50 84 35
50 85 21
50 86 86
50 87 73
50 88 223
50 89 88
50 90 6
51 52 204
51 53 202
51 54 89
51 55 202
51 56 78
51 57 268
51 58 225
51 59 164
51 60 90
51 61 158
51 62 208
51 63 28
51 64 30
51 65 69
51 66 150
51 67 48
51 68 80
51 69 116
51 70 87
51 71 96
51 72 263
51 73 233
51 74 142
51 75 107
51 76 106
51 77 175
51 78 165
51 79 162
51 80 141
51 81 167
51 82 6
51 83 117
51 84 51
51 85 106
51 86 188
51 87 206
51 88 23
51 89 153
51 90 260
52 53 131
52 54 41
52 55 147
52 56 87
52 57 132
52 58 85
52 59 236
52 60 265
52 61 44
52 62 180
52 63 136
52 64 76
52 65 202
52 66 246
52 67 241
52 68 60
52 69 49
52 70 83
52 71 61
52 72 51
52 73 174
52 74 266
52 75 70
52 76 256
52 77 122
52 78 248
52 79 76
52 80 36
52 81 71
52 82 262
52 83 269
52 84 201
52 85 81
52 86 196
52 87 10
52 88 26
52 89 41
52 90 19
53 54 12
53 55 31
53 56 163
53 57 203
53 58 26
53 59 142
53 60 126
53 61 84
53 62 50
53 63 198
53 64 177
53 65 69
53 66 173
53 67 44
53 68 132
53 69 175
53 70 261
53 71 244
53 72 249
53 73 29
53 74 156
53 75 13
53 76 36
53 77 217
53 78 57
53 79 74
53 80 67
53 81 214
53 82 264
53 83 67
53 84 253
53 85 229
53 86 64
53 87 114
53 88 113
53 89 218
53 90 69
54 55 216
54 56 157
54 57 146
54 58 223
54 59 232
54 60 250
54 61 23
54 62 49
54 63 101
54 64 170
54 65 107
54 66 132
54 67 1
54 68 204
54 69 102
54 70 88
54 71 9
54 72 169
54 73 88
54 74 145
54 75 256
54 76 243
54 77 158
54 78 2
54 79 126
54 80 12
54 81 211
54 82 256
54 83 13
54 84 56
54 85 208
54 86 71
54 87 184
54 88 119
54 89 27
54 90 22
55 56 95
55 57 221
55 58 153
55 59 150
55 60 88
55 61 226
55 62 182
55 63 154
55 64 99
55 65 80
55 66 105
55 67 193
55 68 77
55 69 120
55 70 92
55 71 206
55 72 72
55 73 39
55 74 29
55 75 144
55 76 49
55 77 149
55 78 140
55 79 193
55 80 90
55 81 203
55 82 184
55 83 12
55 84 17
55 85 157
55 86 108
55 87 197
55 88 3
55 89 53
55 90 15
56 57 45
56 58 26
56 59 86
56 60 204
56 61 22
56 62 25
56 63 31
56 64 66
56 65 172
56 66 205
56 67 219
56 68 69
56 69 120
56 70 85
56 71 230
56 72 229
56 73 108
56 74 45
56 75 55
56 76 146
56 77 140
56 78 202
56 79 178
56 80 199
56 81 202
56 82 44
56 83 40
56 84 17
56 85 119
56 86 168
56 87 264
56 88 165
56 89 257
56 90 153
57 58 134
57 59 167
57 60 28
57 61 107
57 62 180
57 63 226
57 64 133
57 65 223
57 66 197
57 67 168
57 68 81
57 69 59
57 70 223
57 71 253
57 72 96
57 73 21
57 74 109
57 75 66
57 76 264
57 77 48
57 78 95
57 79 151
57 80 180
57 81 66
57 82 92
57 83 47
57 84 126
57 85 71
57 86 132
57 87 130
57 88 218
57 89 125
57 90 198
58 59 262
58 60 146
58 61 260
58 62 86
58 63 66
58 64 197
58 65 158
58 66 94
58 67 222
58 68 252
58 69 64
58 70 123
58 71 71
58 72 80
58 73 102
58 74 71
58 75 153
58 76 159
58 77 191
58 78 198
58 79 66
58 80 90
58 81 154
58 82 115
58 83 204
58 84 221
58 85 103
58 86 234
58 87 231
58 88 120
58 89 269
58 90 252
59 60 234
59 61 156
59 62 14
59 63 9
59 64 119
59 65 97
59 66 34
59 67 267
59 68 232
59 69 86
59 70 133
59 71 193
59 72 255
59 73 258
59 74 241
59 75 200
59 76 147
59 77 131
59 78 179
59 79 6
59 80 209
59 81 234
59 82 15
59 83 93
59 84 60
59 85 186
59 86 96
59 87 194
59 88 174
59 89 56
59 90 142
60 61 157
60 62 76
60 63 119
60 64 231
60 65 170
60 66 37
60 67 240
60 68 213
60 69 89
60 70 157
60 71 46
60 72 110
60 73 57
60 74 14
60 75 6
60 76 58
60 77 153
60 78 64
60 79 181
60 80 20
60 81 219
60 82 123
60 83 251
60 84 97
60 85 4
60 86 159
60 87 217
60 88 26
60 89 208
60 90 167
61 62 244
61 63 163
61 64 103
61 65 17
61 66 121
61 67 57
61 68 223
61 69 82
61 70 95
61 71 264
61 72 200
61 73 157
61 74 201
61 75 209
61 76 178
61 77 242
61 78 24
61 79 173
61 80 83
61 81 43
61 82 11
61 83 73
61 84 66
61 85 136
61 86 253
61 87 245
61 88 75
61 89 78
61 90 27
62 63 144
62 64 223
62 65 0
62 66 14
62 67 226
62 68 168
62 69 142
62 70 14
62 71 258
62 72 214
62 73 212
62 74 78
62 75 190
62 76 7
62 77 174
62 78 202
62 79 14
62 80 158
62 81 154
62 82 22
62 83 10
62 84 253
62 85 121
62 86 178
62 87 42
62 88 208
62 89 24
62 90 72
63 64 27
63 65 134
63 66 238
63 67 60
63 68 117
63 69 56
63 70 104
63 71 135
63 72 248
63 73 68
63 74 54
63 75 137
63 76 218
63 77 228
63 78 187
63 79 27
63 80 112
63 81 102
63 82 245
63 83 190
63 84 55
63 85 241
63 86 200
63 87 223
63 88 65
63 89 253
63 90 140
64 65 94
64 66 131
64 67 245
64 68 210
64 69 107
64 70 195
64 71 207
64 72 117
64 73 217
64 74 128
64 75 152
64 76 182
64 77 155
64 78 71
64 79 115
64 80 90
64 81 87
64 82 97
64 83 164
64 84 123
64 85 36
64 86 108
64 87 205
64 88 239
64 89 261
64 90 112
65 66 190
65 67 85
65 68 139
65 69 234
65 70 227
65 71 7
65 72 89
65 73 35
65 74 2
65 75 197
65 76 208
65 77 246
65 78 221
65 79 262
65 80 40
65 81 79
65 82 250
65 83 228
65 84 173
65 85 220
65 86 183
65 87 238
65 88 3
65 89 170
65 90 255
66 67 76
66 68 178
66 69 231
66 70 17
66 71 105
66 72 43
66 73 173
66 74 157
66 75 143
66 76 167
66 77 41
66 78 71
66 79 152
66 80 198
66 81 58
66 82 255
66 83 11
66 84 142
66 85 245
66 86 164
66 87 53
66 88 1
66 89 30
66 90 249
67 68 123
67 69 110
67 70 195
67 71 53
67 72 87
67 73 264
67 74 119
67 75 182
67 76 177
67 77 102
67 78 232
67 79 101
67 80 74
67 81 249
67 82 248
67 83 73
67 84 165
67 85 184
67 86 61
67 87 97
67 88 209
67 89 138
67 90 209
68 69 92
68 70 179
68 71 40
68 72 71
68 73 1
68 74 214
68 75 70
68 76 49
68 77 87
68 78 89
68 79 48
68 80 239
68 81 8
68 82 27
68 83 62
68 84 83
68 85 33
68 86 207
68 87 30
68 88 49
68 89 145
68 90 219
69 70 28
69 71 259
69 72 159
69 73 26
69 74 229
69 75 10
69 76 88
69 77 234
69 78 3
69 79 9
69 80 175
69 81 128
69 82 109
69 83 105
69 84 190
69 85 112
69 86 256
69 87 1
69 88 201
69 89 57
69 90 94
70 71 111
70 72 29
70 73 109
70 74 164
70 75 52
70 76 53
70 77 76
70 78 139
70 79 166
70 80 10
70 81 243
70 82 61
70 83 208
70 84 60
70 85 243
70 86 154
70 87 61
70 88 102
70 89 193
70 90 176
71 72 227
71 73 218
71 74 131
71 75 91
71 76 222
71 77 204
71 78 191
71 79 49
71 80 26
71 81 214
71 82 176
71 83 59
71 84 56
71 85 63
71 86 90
71 87 163
71 88 141
71 89 81
71 90 21
72 73 245
72 74 266
72 75 173
72 76 106
72 77 162
72 78 117
72 79 112
72 80 252
72 81 79
72 82 260
72 83 106
72 84 60
72 85 9
72 86 69
72 87 204
72 88 164
72 89 267
72 90 167
73 74 22
73 75 186
73 76 29
73 77 141
73 78 212
73 79 129
73 80 230
73 81 7
73 82 229
73 83 141
73 84 42
73 85 157
73 86 36
73 87 152
73 88 186
73 89 124
73 90 76
74 75 36
74 76 46
74 77 161
74 78 159
74 79 126
74 80 76
74 81 57
74 82 243
74 83 267
74 84 180
74 85 77
74 86 136
74 87 215
74 88 226
74 89 76
74 90 124
75 76 234
75 77 171
75 78 185
75 79 35
75 80 246
75 81 33
75 82 111
75 83 89
75 84 265
75 85 45
75 86 20
75 87 223
75 88 188
75 89 250
75 90 81
76 77 72
76 78 225
76 79 178
76 80 168
76 81 1
76 82 29
76 83 208
76 84 164
76 85 124
76 86 63
76 87 237
76 88 101
76 89 139
76 90 208
77 78 5
77 79 35
77 80 232
77 81 163
77 82 264
77 83 126
77 84 187
77 85 223
77 86 95
77 87 242
77 88 104
77 89 18
77 90 166
78 79 213
78 80 132
78 81 268
78 82 127
78 83 130
78 84 149
78 85 249
78 86 9
78 87 44
78 88 124
78 89 177
78 90 62
79 80 99
79 81 226
79 82 257
79 83 245
79 84 213
79 85 37
79 86 232
79 87 202
79 88 38
79 89 186
79 90 36
80 81 168
80 82 48
80 83 196
80 84 135
80 85 67
80 86 237
80 87 230
80 88 68
80 89 47
80 90 2
81 82 257
81 83 216
81 84 142
81 85 135
81 86 206
81 87 210
81 88 173
81 89 168
81 90 31
82 83 185
82 84 13
82 85 252
82 86 95
82 87 232
82 88 202
82 89 78
82 90 152
83 84 186
83 85 71
83 86 253
83 87 13
83 88 226
83 89 269
83 90 55
84 85 217
84 86 210
84 87 164
84 88 106
84 89 240
84 90 112
85 86 31
85 87 188
85 88 172
85 89 239
85 90 177
86 87 27
86 88 205
86 89 248
86 90 118
87 88 27
87 89 49
87 90 48
88 89 223
88 90 150
89 90 10
